(set-info :source |printed by MathSAT|)
(declare-fun malloc@2 () (_ BitVec 32))
(declare-fun |__ADDRESS_OF_#__VERIFIER_successful_alloc_*void#1@| () (_ BitVec 32))
(declare-fun |main::x@3| () (_ BitVec 32))
(declare-fun |*(struct_TSLL)*@1| () (Array (_ BitVec 32) (_ BitVec 32)))
(declare-fun |*(struct_TSLL)*@2| () (Array (_ BitVec 32) (_ BitVec 32)))
(declare-fun *int@1 () (Array (_ BitVec 32) (_ BitVec 32)))
(declare-fun *int@2 () (Array (_ BitVec 32) (_ BitVec 32)))
(declare-fun |main::expr_tmp_var_52_ptr@3| () (_ BitVec 32))
(declare-fun |main::expr_tmp_var_53_int@2| () (_ BitVec 32))
(declare-fun |main::expr_tmp_var_52_ptr@4| () (_ BitVec 32))
(declare-fun |main::local_28@2| () (_ BitVec 32))
(declare-fun malloc@3 () (_ BitVec 32))
(declare-fun |__ADDRESS_OF_#__VERIFIER_successful_alloc_*void#2@| () (_ BitVec 32))
(declare-fun |main::pSVar1@3| () (_ BitVec 32))
(declare-fun *int@3 () (Array (_ BitVec 32) (_ BitVec 32)))
(declare-fun |*(struct_TSLL)*@3| () (Array (_ BitVec 32) (_ BitVec 32)))
(declare-fun |main::x@4| () (_ BitVec 32))
(declare-fun |main::expr_tmp_var_52_ptr@5| () (_ BitVec 32))
(declare-fun |main::expr_tmp_var_52_ptr@6| () (_ BitVec 32))
(assert (let ((.def_198 (select *int@3 |main::expr_tmp_var_52_ptr@6|)))(let ((.def_199 (= .def_198 (_ bv1 32))))(let ((.def_200 (not .def_199)))(let ((.def_159 (= |main::expr_tmp_var_52_ptr@6| (_ bv0 32))))(let ((.def_160 (not .def_159)))(let ((.def_153 (bvadd (_ bv4 32) |main::expr_tmp_var_52_ptr@5|)))(let ((.def_154 (select |*(struct_TSLL)*@3| .def_153)))(let ((.def_156 (= .def_154 |main::expr_tmp_var_52_ptr@6|)))(let ((.def_140 (select *int@3 |main::expr_tmp_var_52_ptr@5|)))(let ((.def_141 (= .def_140 (_ bv1 32))))(let ((.def_134 (= |main::x@4| |main::expr_tmp_var_52_ptr@5|)))(let ((.def_106 (= |main::pSVar1@3| |main::x@4|)))(let ((.def_99 (bvadd (_ bv4 32) |main::pSVar1@3|)))(let ((.def_101 (store |*(struct_TSLL)*@2| .def_99 |main::x@3|)))(let ((.def_102 (= |*(struct_TSLL)*@3| .def_101)))(let ((.def_94 (store *int@2 |main::pSVar1@3| (_ bv1 32))))(let ((.def_95 (= *int@3 .def_94)))(let ((.def_19 (bvadd (_ bv4 32) |__ADDRESS_OF_#__VERIFIER_successful_alloc_*void#1@|)))(let ((.def_71 (bvslt .def_19 |__ADDRESS_OF_#__VERIFIER_successful_alloc_*void#2@|)))(let ((.def_22 (bvadd (_ bv8 32) |__ADDRESS_OF_#__VERIFIER_successful_alloc_*void#1@|)))(let ((.def_70 (bvslt .def_22 |__ADDRESS_OF_#__VERIFIER_successful_alloc_*void#2@|)))(let ((.def_84 (and .def_70 .def_71)))(let ((.def_72 (bvurem |__ADDRESS_OF_#__VERIFIER_successful_alloc_*void#2@| (_ bv8 32))))(let ((.def_73 (= .def_72 (_ bv0 32))))(let ((.def_85 (and .def_73 .def_84)))(let ((.def_75 (bvadd (_ bv4 32) |__ADDRESS_OF_#__VERIFIER_successful_alloc_*void#2@|)))(let ((.def_76 (bvslt (_ bv0 32) .def_75)))(let ((.def_86 (and .def_76 .def_85)))(let ((.def_78 (bvadd (_ bv8 32) |__ADDRESS_OF_#__VERIFIER_successful_alloc_*void#2@|)))(let ((.def_79 (bvslt (_ bv0 32) .def_78)))(let ((.def_87 (and .def_79 .def_86)))(let ((.def_80 (bvslt (_ bv0 32) |__ADDRESS_OF_#__VERIFIER_successful_alloc_*void#2@|)))(let ((.def_88 (and .def_80 .def_87)))(let ((.def_67 (= malloc@3 (_ bv0 32))))(let ((.def_68 (not .def_67)))(let ((.def_81 (ite .def_68 |__ADDRESS_OF_#__VERIFIER_successful_alloc_*void#2@| (_ bv0 32))))(let ((.def_83 (= .def_81 |main::pSVar1@3|)))(let ((.def_89 (and .def_83 .def_88)))(let ((.def_61 (= |main::local_28@2| (_ bv0 32))))(let ((.def_64 (not .def_61)))(let ((.def_58 (= |main::x@3| |main::expr_tmp_var_52_ptr@4|)))(let ((.def_51 (= |main::expr_tmp_var_53_int@2| (_ bv0 32))))(let ((.def_48 (= |main::x@3| |main::expr_tmp_var_52_ptr@3|)))(let ((.def_43 (store *int@1 |main::x@3| (_ bv0 32))))(let ((.def_44 (= *int@2 .def_43)))(let ((.def_32 (bvadd (_ bv4 32) |main::x@3|)))(let ((.def_35 (store |*(struct_TSLL)*@1| .def_32 (_ bv0 32))))(let ((.def_36 (= |*(struct_TSLL)*@2| .def_35)))(let ((.def_16 (bvurem |__ADDRESS_OF_#__VERIFIER_successful_alloc_*void#1@| (_ bv8 32))))(let ((.def_17 (= .def_16 (_ bv0 32))))(let ((.def_15 (bvslt (_ bv0 32) |__ADDRESS_OF_#__VERIFIER_successful_alloc_*void#1@|)))(let ((.def_27 (and .def_15 .def_17)))(let ((.def_20 (bvslt (_ bv0 32) .def_19)))(let ((.def_28 (and .def_20 .def_27)))(let ((.def_23 (bvslt (_ bv0 32) .def_22)))(let ((.def_29 (and .def_23 .def_28)))(let ((.def_11 (= malloc@2 (_ bv0 32))))(let ((.def_12 (not .def_11)))(let ((.def_24 (ite .def_12 |__ADDRESS_OF_#__VERIFIER_successful_alloc_*void#1@| (_ bv0 32))))(let ((.def_26 (= .def_24 |main::x@3|)))(let ((.def_30 (and .def_26 .def_29)))(let ((.def_38 (and .def_30 .def_36)))(let ((.def_46 (and .def_38 .def_44)))(let ((.def_49 (and .def_46 .def_48)))(let ((.def_56 (and .def_49 .def_51)))(let ((.def_59 (and .def_56 .def_58)))(let ((.def_65 (and .def_59 .def_64)))(let ((.def_90 (and .def_65 .def_89)))(let ((.def_97 (and .def_90 .def_95)))(let ((.def_104 (and .def_97 .def_102)))(let ((.def_107 (and .def_104 .def_106)))(let ((.def_135 (and .def_107 .def_134)))(let ((.def_145 (and .def_135 .def_141)))(let ((.def_157 (and .def_145 .def_156)))(let ((.def_162 (and .def_157 .def_160)))(let ((.def_202 (and .def_162 .def_200))).def_202)))))))))))))))))))))))))))))))))))))))))))))))))))))))))))))))))))))))))))))